50	100	100	100
70	25	87
83	36	89
77	10	78
85	38	72
98	26	73
88	14	76
69	15	71
66	35	84
78	1	89
98	30	72
66	13	93
88	32	67
83	15	94
70	45	87
72	34	80
97	12	72
78	40	87
83	4	87
88	8	93
74	30	85
95	4	67
97	33	79
84	26	92
97	4	94
75	47	66
95	11	99
77	7	80
78	12	94
87	26	73
97	30	80
90	16	90
80	24	95
72	49	75
90	46	67
88	4	87
78	17	77
98	21	70
98	33	84
93	37	79
98	31	91
79	30	86
73	12	88
95	45	93
84	30	74
88	18	82
85	33	70
87	39	76
76	23	73
84	32	74
92	39	84
